# Objective value = 12
WA1n 0
WA1p 0
WA2n 1
WA2p 0
WB1n 0
WB1p 0
WB2n 1
WB2p 0
WC1n 0
WC1p 0
WC2n 1
WC2p 0
WD1n 1
WD1p 0
WE1n 2
WE1p 0
WT1n 1
WT1p 0
WT2n 1
WT2p 0
100 101
a 1
b 1
c 1
d 1
e 1
f 1
g 1
h 0
i 1
j 1
